param : ol:      R       X   Imax :=
#                ohm     ohm    A
        1  2  0.1170  0.0480  600    
        2  3  0.1073  0.0440  600
        3  4  0.1645  0.0457  600
        4  5  0.1495  0.0415  600
        5  6  0.1495  0.0415  600
        6  7  0.3144  0.0540  200
        7  8  0.2096  0.0360  200
        8  9  0.3144  0.0540  200
        9 10  0.2096  0.0360  200
       10 11  0.1310  0.0225  100
       11 12  0.1048  0.0180  100
        3 13  0.1572  0.0270  100
       13 14  0.2096  0.0360  100
       14 15  0.1048  0.0180  100
       15 16  0.0524  0.0090  100
        6 17  0.1794  0.0498  400
       17 18  0.1645  0.0457  400
       18 19  0.2079  0.0473  400
       19 20  0.1890  0.0430  400
       20 21  0.1890  0.0430  400
       21 22  0.2620  0.0450  200
       22 23  0.2620  0.0450  200
       23 24  0.3144  0.0540  200
       24 25  0.2096  0.0360  200
       25 26  0.1310  0.0225  100
       26 27  0.1048  0.0180  100
        7 28  0.1572  0.0270  100
       28 29  0.1572  0.0270  100
       29 30  0.1572  0.0270  100
       10 31  0.1572  0.0270  100
       31 32  0.2096  0.0360  100
       32 33  0.1572  0.0270  100
       33 34  0.1048  0.0180  100;

param : ob :  Tb :=
#             Tb=1:SE, Tb=0:carga
         1     1
         2     0
         3     0
         4     0
         5     0
         6     0
         7     0
         8     0
         9     0
         10    0
         11    0
         12    0
         13    0
         14    0
         15    0
         16    0
         17    0
         18    0
         19    0
         20    0
         21    0
         22    0
         23    0
         24    0
         25    0
         26    0
         27    0
         28    0
         29    0
         30    0
         31    0
         32    0
         33    0
         34    0;

param : obV :  Vmed      WV :=
#                 kV
        1    6.3509   10000 
        3    6.2281   10000
        6    6.0194   10000
        7    5.9767   10000
        10   5.9124   10000
        14   6.2212   10000
        17   5.9692   10000
        20   5.8439   10000
        25   5.7018   10000
        27   5.6949   10000
        28   5.9730   10000
        30   5.9692   10000
        33   5.9028   10000;

param : olI :  Imed      WI :=
#                 A
      1   2  523.61   10000
      3   4  474.64   10000
      5   6  424.53   10000
      6   7  144.49   10000
      9  10   67.53   10000
      3  13   24.59   10000
     13  14   16.86   10000
      6  17  280.05   10000
     20  21  176.23   10000
     24  25   69.82   10000
     28  29   16.90   10000
     29  30    8.45   10000
     10  31   26.17   10000
     33  34    6.55   10000;
	    
param : olP :  Pmed      WP :=
#                 
      1   2 2824.99   10000   
      5   6 2182.94   10000   
      9  10  337.57   10000   
     13  14   89.21   10000   
      6  17 1429.81   10000   
     20  21  873.49   10000   
     24  25  338.47   10000   
     29  30   42.50   10000   
     33  34   32.30   10000;  

param : olQ :  Qmed      WQ :=
#                 
      1   2 1688.39   10000   
      5   6 1328.43   10000   
      9  10  213.18   10000   
     13  14   55.20   10000
      6  17  866.05   10000   
     20  21  534.72   10000   
     24  25  209.55   10000   
     29  30   27.20   10000   
     33  34   21.20   10000;  
  
param : obPS :  PSmed      WPS :=
#                 
          1 2857.06   10000;   
  
param : obQS :  QSmed      WQS :=
#                 
          1 1701.55   10000;   

param : obPD :  PDmed      WPD :=
#                 
           3    0.0  10000  
           4  130.3  10000  
           6    0.0  10000  
           7    0.0  10000
           8  130.3  10000            
           9  130.3  10000  
          10    0.0  10000  
          11  130.3  10000
          13   40.8  10000
          15   40.8  10000          
          17  130.3  10000  
          20  130.3  10000
          22  130.3  10000          
          24  130.3  10000  
          27   77.6  10000  
          29   42.5  10000  
          31   32.3  10000  
          32   32.3  10000 
          34   32.3  10000; 

param : obQD :  QDmed      WQD :=
#                 
           3    0.0  10000  
           4   80.7  10000
           6    0.0  10000  
           7    0.0  10000
           8   80.7  10000           
           9   80.7  10000  
          10    0.0  10000
          11   80.7  10000          
          13   25.5  10000
          15   25.5  10000          
          17   80.7  10000  
          20   80.7  10000
          22   80.7  10000 
          24   80.7  10000  
          27   48.1  10000  
          29   27.2  10000
          31   21.2  10000  
          32   21.2  10000 
          34   21.2  10000; 